10	5	2	0
0	1	11	10	9	11	2	7	5	6	3	4	8	1	[0 0 0 0 0]	[0 0 0 0 0]	[0]	[0 0 0 0 0]	[0 0 0 0 0]	[0 0 0 0 0]	[0 0 0 0 0]	[0 0 0 0 0]	[0 0 0 0 0]	[0 0 0 0 0]	[0 0 0 0 0]
1	5	4	11	8	10	7	[10 4 10 7 9]	[-6 -8 0 -4 30 11 4 8 1 8 0 24 7 5 13 -4 21 15 1 -6 14 13 2 7 11]	[18 -6 1 8 -2 4 11 2 -3 0 -1 19 20 0 9 9 -4 -1 -6 0 17 0 0 27 8]	[10 26 28 -4 21 9 0 0 11 0 0 9 23 16 20 7 2 20 17 -1 0 5 -5 24 16]
2	5	3	9	7	11	[-4 0 -3 10 5 -3 12 22 0 19 -3 3 11 11 0 0 -9 27 25 24 -2 14 11 20 -4]	[15 -3 -2 4 6 -6 9 -3 -3 19 16 9 19 5 9 2 26 5 13 -6 0 0 18 1 20]	[5 8 7 10 7]
3	5	5	9	10	8	7	11	[20 -2 2 11 0 18 -5 1 16 -4 14 17 16 5 -5 1 3 2 3 0 21 -1 17 1 13]	[13 4 11 -3 -4 23 -6 0 17 4 -5 19 29 25 2 2 2 0 1 0 14 3 20 10 23]	[7 1 1 -2 7 0 -5 13 16 6 5 14 10 -2 19 1 2 0 1 0 5 -6 16 15 -5]	[11 6 -5 -4 21 1 3 3 0 12 -3 23 -3 28 26 0 0 0 3 2 -3 5 18 -6 -3]	[7 8 10 1 8]
4	5	2	7	11	[15 22 26 -5 0 17 -4 -5 8 -3 -4 -2 14 1 14 12 8 16 5 14 2 2 6 6 0]	[9 6 6 6 2]
5	5	3	7	6	11	[13 3 11 1 10 6 9 5 11 -2 0 -2 -1 8 4 16 17 -4 20 0 0 1 0 0 0]	[-1 14 -2 15 -4 4 10 0 3 -3 3 5 0 -1 4 3 3 17 3 3 3 0 1 1 1]	[6 4 3 7 1]
6	5	1	11	[3 1 8 10 5]
7	5	2	11	5	[3 10 10 9 6]	[-18 -6 -3 -13 -15 -9 -11 -8 -4 -5 -18 -8 -5 -7 -10 -3 -9 -11 -8 -5 -17 -13 -9 -14 -10]
8	5	2	3	11	[-5 -2 -6 -8 -3 -7 -16 0 -7 0 -2 -4 -15 -2 -14 -13 -9 -1 -16 -16 -13 -9 -15 -14 -14]	[2 2 6 9 5]
9	5	2	11	2	[4 7 4 3 4]	[-1 -6 -9 -23 -16 -23 -1 -5 -18 -5 -3 -7 -7 -14 -4 -6 -21 -22 -22 -5 -2 -4 -18 -5 -23]
10	5	1	11	[3 6 2 7 2]
11	1	0
0	1	0	0	0	0	0	0	0	0
1	1	10	4	3	2	5	5	2	1
	2	4	4	3	2	5	5	2	1
	3	10	4	3	2	5	5	2	1
	4	7	4	3	2	5	5	2	1
	5	9	4	3	2	5	5	2	1
2	1	5	5	4	2	2	3	4	5
	2	8	5	4	2	2	3	4	5
	3	7	5	4	2	2	3	4	5
	4	10	5	4	2	2	3	4	5
	5	7	5	4	2	2	3	4	5
3	1	7	3	4	2	5	4	4	2
	2	8	3	4	2	5	4	4	2
	3	10	3	4	2	5	4	4	2
	4	1	3	4	2	5	4	4	2
	5	8	3	4	2	5	4	4	2
4	1	9	2	2	5	2	1	4	4
	2	6	2	2	5	2	1	4	4
	3	6	2	2	5	2	1	4	4
	4	6	2	2	5	2	1	4	4
	5	2	2	2	5	2	1	4	4
5	1	6	3	1	2	5	3	2	2
	2	4	3	1	2	5	3	2	2
	3	3	3	1	2	5	3	2	2
	4	7	3	1	2	5	3	2	2
	5	1	3	1	2	5	3	2	2
6	1	3	1	3	5	2	5	2	1
	2	1	1	3	5	2	5	2	1
	3	8	1	3	5	2	5	2	1
	4	10	1	3	5	2	5	2	1
	5	5	1	3	5	2	5	2	1
7	1	3	5	5	4	1	5	4	1
	2	10	5	5	4	1	5	4	1
	3	10	5	5	4	1	5	4	1
	4	9	5	5	4	1	5	4	1
	5	6	5	5	4	1	5	4	1
8	1	2	5	2	3	5	5	2	3
	2	2	5	2	3	5	5	2	3
	3	6	5	2	3	5	5	2	3
	4	9	5	2	3	5	5	2	3
	5	5	5	2	3	5	5	2	3
9	1	4	4	4	4	1	5	1	4
	2	7	4	4	4	1	5	1	4
	3	4	4	4	4	1	5	1	4
	4	3	4	4	4	1	5	1	4
	5	4	4	4	4	1	5	1	4
10	1	3	4	3	3	1	1	1	2
	2	6	4	3	3	1	1	1	2
	3	2	4	3	3	1	1	1	2
	4	7	4	3	3	1	1	1	2
	5	2	4	3	3	1	1	1	2
11	1	0	0	0	0	0	0	0	0
21	18	19	17	21	26	51
